2288.0 32944.0 
2282.0 32978.0 
2349.0 32866.0 
2282.0 32978.0 
2273.0 33060.0 
2282.0 32978.0 
2298.0 32882.0 
2424.0 32661.0 
2298.0 32882.0 
2241.0 33886.0 
2288.0 32944.0 
2352.0 32762.0 
2257.0 33271.0 
2357.0 32709.0 
2223.0 33902.0 
2357.0 32709.0 
